#######################################
### Exact MIP solver for the HHCRSP ###
#######################################
-- Instance file: new-instances/HHCRSP_300_60_22_0.4_C_C.txt
-- Max threads: 4
-- Time limit: 999999 seconds
-- Use initial solution: No
Trivial flow violations prevented generating 1226608 variables.
Version identifier: 20.1.0.0 | 2020-11-10 | 9bedb6d68
CPXPARAM_Threads                                 4
CPXPARAM_TimeLimit                               999999
Parallel mode: deterministic, using up to 4 threads for concurrent optimization:
 * Starting dual Simplex on 1 thread...
 * Starting Barrier on 3 threads...
Tried aggregator 1 time.
LP Presolve eliminated 49590 rows and 11560 columns.
Reduced LP has 1369350 rows, 1296238 columns, and 32849555 nonzeros.
Presolve time = 37.31 sec. (7136.29 ticks)
Symmetry aggregator did 2248879 additional substitutions.

Iteration log . . .
Iteration:     1   Dual objective     =             0.000000
Iteration:  1369   Dual objective     =           369.500000

Dual crossover.
  Dual:  Fixing 2058 variables.
     2057 DMoves:  Infeasibility  2.21828112e-12  Objective  3.73666667e+02
        0 DMoves:  Infeasibility  1.07930331e-12  Objective  3.73666667e+02
  Dual:  Pushed 35, exchanged 2023.
  Primal:  Fixing 1304 variables.
     1303 PMoves:  Infeasibility  0.00000000e+00  Objective  3.73666667e+02
        0 PMoves:  Infeasibility  0.00000000e+00  Objective  3.73666667e+02
  Primal:  Pushed 1163, exchanged 141.

Dual simplex solved model.


Solution status from MIP model:
-- Processing time: 60.88 sec.
-- Memory used: 1206.77 MB
-- Best bound: inf
-- Obj value: 373.667
-- Gap: inf%
-- Total distance: 1121
-- Total tardiness: 0
-- Largest tardiness: 0
